Test: hole010_shuffled.cnf
Options: -no-inverting-opt -sym-usage-var-bump
WARNING: for repeatability, setting FPU to use double precision
============================[ Problem Statistics ]=============================
|                                                                             |
|  Number of symmetries:           19                                         |
|  Number of invertingSyms:         0                                         |
|  Number of variables:           110                                         |
|  Number of clauses:             561                                         |
|  Parse time:                   0.00 s                                       |
|                                                                             |
============================[ Search Statistics ]==============================
| Conflicts |          ORIGINAL         |          LEARNT          | Progress |
|           |    Vars  Clauses Literals |    Limit  Clauses Lit/Cl |          |
===============================================================================
|       100 |     110      561     1210 |      205      113     43 |  0.008 % |
|       250 |     110      561     1210 |      226      238     34 |  0.008 % |
|       475 |     110      561     1210 |      248      191     31 |  0.008 % |
|       812 |     110      561     1210 |      273      215     32 |  0.008 % |
|      1318 |     110      561     1210 |      301      185     29 |  0.008 % |
|      2077 |     110      561     1210 |      331      275     32 |  0.008 % |
|      3216 |     110      561     1210 |      364      193     26 |  0.008 % |
===============================================================================
restarts              : 22
conflicts             : 4263           (59205 /sec)
symconflicts          : 509            (7069 /sec)
decisions             : 7429           (0.00 % random) (103175 /sec)
propagations          : 86505          (1201392 /sec)
sympropagations       : 3095           (42984 /sec)
conflict literals     : 150756         (6.04 % deleted)
literals     : 150756         (6.04 % deleted)

HEURISTIC USAGES
random                : 0           
activity w/ lookahead : 0           
activity no lookahead : 0           
original sp           : 7429        
sym count             : 0           

Memory used           : 5.00 MB
CPU time              : 0.072004 s

UNSATISFIABLE
